NAME          
ROWS
 N  OBJ
 L  c1
 L  c2
COLUMNS
    MARKER    'MARKER'                 'INTORG'
    x[1]      c1        759
    x[1]      c2        768
    x[1]      OBJ       -624
    x[2]      c1        546
    x[2]      c2        768
    x[2]      OBJ       -895
    x[3]      c1        502
    x[3]      c2        824
    x[3]      OBJ       -183
    x[4]      c1        435
    x[4]      c2        787
    x[4]      OBJ       -150
    x[5]      c1        270
    x[5]      c2        486
    x[5]      OBJ       -250
    x[6]      c1        775
    x[6]      c2        731
    x[6]      OBJ       -472
    x[7]      c1        534
    x[7]      c2        296
    x[7]      OBJ       -781
    x[8]      c1        844
    x[8]      c2        950
    x[8]      OBJ       -337
    x[9]      c1        691
    x[9]      c2        5
    x[9]      OBJ       -376
    x[10]     c1        274
    x[10]     c2        21
    x[10]     OBJ       -195
    x[11]     c1        611
    x[11]     c2        236
    x[11]     OBJ       -233
    x[12]     c1        76
    x[12]     c2        523
    x[12]     OBJ       -170
    x[13]     c1        130
    x[13]     c2        857
    x[13]     OBJ       -848
    x[14]     c1        753
    x[14]     c2        69
    x[14]     OBJ       -358
    x[15]     c1        423
    x[15]     c2        869
    x[15]     OBJ       -378
    x[16]     c1        415
    x[16]     c2        365
    x[16]     OBJ       -157
    x[17]     c1        420
    x[17]     c2        115
    x[17]     OBJ       -118
    x[18]     c1        80
    x[18]     c2        656
    x[18]     OBJ       -244
    x[19]     c1        507
    x[19]     c2        842
    x[19]     OBJ       -402
    x[20]     c1        695
    x[20]     c2        690
    x[20]     OBJ       -978
    x[21]     c1        178
    x[21]     c2        77
    x[21]     OBJ       -220
    x[22]     c1        645
    x[22]     c2        722
    x[22]     OBJ       -300
    x[23]     c1        943
    x[23]     c2        570
    x[23]     OBJ       -696
    x[24]     c1        19
    x[24]     c2        659
    x[24]     OBJ       -4
    x[25]     c1        375
    x[25]     c2        615
    x[25]     OBJ       -751
RHS
    rhs       c1        5950
    rhs       c2        6750
RANGES
BOUNDS
 LO bounds    x[1]      0
 PL bounds    x[1]
 LO bounds    x[2]      0
 PL bounds    x[2]
 LO bounds    x[3]      0
 PL bounds    x[3]
 LO bounds    x[4]      0
 PL bounds    x[4]
 LO bounds    x[5]      0
 PL bounds    x[5]
 LO bounds    x[6]      0
 PL bounds    x[6]
 LO bounds    x[7]      0
 PL bounds    x[7]
 LO bounds    x[8]      0
 PL bounds    x[8]
 LO bounds    x[9]      0
 PL bounds    x[9]
 LO bounds    x[10]     0
 PL bounds    x[10]
 LO bounds    x[11]     0
 PL bounds    x[11]
 LO bounds    x[12]     0
 PL bounds    x[12]
 LO bounds    x[13]     0
 PL bounds    x[13]
 LO bounds    x[14]     0
 PL bounds    x[14]
 LO bounds    x[15]     0
 PL bounds    x[15]
 LO bounds    x[16]     0
 PL bounds    x[16]
 LO bounds    x[17]     0
 PL bounds    x[17]
 LO bounds    x[18]     0
 PL bounds    x[18]
 LO bounds    x[19]     0
 PL bounds    x[19]
 LO bounds    x[20]     0
 PL bounds    x[20]
 LO bounds    x[21]     0
 PL bounds    x[21]
 LO bounds    x[22]     0
 PL bounds    x[22]
 LO bounds    x[23]     0
 PL bounds    x[23]
 LO bounds    x[24]     0
 PL bounds    x[24]
 LO bounds    x[25]     0
 PL bounds    x[25]
ENDATA
